c ind 101 104 15 17 19 21 23 25 27 29 0
c ind 31 32 4 5 60 63 65 68 71 74 0
c ind 77 80 83 86 89 92 95 98 0
p cnf 178 553
-1 2 0
-1 50 0
-10 11 0
-10 22 0
-100 -101 102 0
-100 -102 101 0
-102 -103 -105 0
-102 103 105 0
-103 -104 -32 0
-103 104 32 0
-105 98 99 0
-106 107 0
-106 140 0
-107 108 0
-107 136 0
-108 109 0
-108 132 0
-109 110 0
-109 128 0
-11 12 0
-11 20 0
-110 111 0
-110 124 0
-111 112 0
-111 120 0
-112 113 0
-112 116 0
-113 -114 60 0
-113 -60 114 0
-114 -115 -5 0
-114 115 5 0
-115 -15 -32 0
-115 15 32 0
-116 -117 65 0
-116 -65 117 0
-117 -118 -119 0
-117 118 119 0
-118 -17 -5 0
-118 17 5 0
-119 15 5 0
-12 13 0
-12 18 0
-120 -121 71 0
-120 -71 121 0
-121 -122 -123 0
-121 122 123 0
-122 -19 -5 0
-122 19 5 0
-123 119 0
-123 17 0
-124 -125 77 0
-124 -77 125 0
-125 -126 -127 0
-125 126 127 0
-126 -21 -5 0
-126 21 5 0
-127 123 0
-127 19 0
-128 -129 83 0
-128 -83 129 0
-129 -130 -131 0
-129 130 131 0
-13 14 0
-13 16 0
-130 -23 -5 0
-130 23 5 0
-131 127 0
-131 21 0
-132 -133 89 0
-132 -89 133 0
-133 -134 -135 0
-133 134 135 0
-134 -25 -5 0
-134 25 5 0
-135 131 0
-135 23 0
-136 -137 95 0
-136 -95 137 0
-137 -138 -139 0
-137 138 139 0
-138 -27 -5 0
-138 27 5 0
-139 135 0
-139 25 0
-14 -15 5 0
-14 -5 15 0
-140 -101 141 0
-140 -141 101 0
-141 -142 -143 0
-141 142 143 0
-142 -29 -5 0
-142 29 5 0
-143 139 0
-143 27 0
-144 -35 145 0
-144 35 106 0
-145 146 0
-145 175 0
-146 147 0
-146 171 0
-147 148 0
-147 167 0
-148 149 0
-148 163 0
-149 150 0
-149 159 0
-150 151 0
-150 155 0
-151 152 0
-151 59 0
-152 -153 65 0
-152 -65 153 0
-153 -154 -69 0
-153 154 69 0
-154 -68 -5 0
-154 68 5 0
-155 -156 71 0
-155 -71 156 0
-156 -157 -158 0
-156 157 158 0
-157 -74 -5 0
-157 74 5 0
-158 68 0
-158 69 0
-159 -160 77 0
-159 -77 160 0
-16 -17 5 0
-16 -5 17 0
-160 -161 -162 0
-160 161 162 0
-161 -80 -5 0
-161 80 5 0
-162 158 0
-162 74 0
-163 -164 83 0
-163 -83 164 0
-164 -165 -166 0
-164 165 166 0
-165 -86 -5 0
-165 86 5 0
-166 162 0
-166 80 0
-167 -168 89 0
-167 -89 168 0
-168 -169 -170 0
-168 169 170 0
-169 -92 -5 0
-169 92 5 0
-170 166 0
-170 86 0
-171 -172 95 0
-171 -95 172 0
-172 -173 -174 0
-172 173 174 0
-173 -98 -5 0
-173 98 5 0
-174 170 0
-174 92 0
-175 -101 176 0
-175 -176 101 0
-176 -177 -178 0
-176 177 178 0
-177 -104 -5 0
-177 104 5 0
-178 174 0
-178 98 0
-18 -19 5 0
-18 -5 19 0
-2 -3 6 0
-2 3 34 0
-20 -21 5 0
-20 -5 21 0
-22 -23 5 0
-22 -5 23 0
-24 -25 5 0
-24 -5 25 0
-26 -27 5 0
-26 -5 27 0
-28 -29 5 0
-28 -5 29 0
-3 -4 5 0
-3 -5 4 0
-30 -31 32 0
-30 -32 31 0
-33 -31 5 0
-33 -5 31 0
-34 -35 33 0
-34 35 30 0
-35 36 0
-35 49 0
-36 37 0
-36 48 0
-37 38 0
-37 47 0
-38 39 0
-38 46 0
-39 40 0
-39 45 0
-40 41 0
-40 44 0
-41 42 0
-41 43 0
-42 -15 32 0
-42 -32 15 0
-43 -17 32 0
-43 -32 17 0
-44 -19 32 0
-44 -32 19 0
-45 -21 32 0
-45 -32 21 0
-46 -23 32 0
-46 -32 23 0
-47 -25 32 0
-47 -32 25 0
-48 -27 32 0
-48 -32 27 0
-49 -29 32 0
-49 -32 29 0
-5 0
-50 -3 51 0
-50 3 144 0
-51 -35 52 0
-51 35 106 0
-52 100 0
-52 53 0
-53 54 0
-53 94 0
-54 55 0
-54 88 0
-55 56 0
-55 82 0
-56 57 0
-56 76 0
-57 58 0
-57 70 0
-58 59 0
-58 64 0
-59 -60 61 0
-59 -61 60 0
-6 -7 30 0
-6 7 33 0
-61 -62 -5 0
-61 62 5 0
-62 -63 -32 0
-62 63 32 0
-64 -65 66 0
-64 -66 65 0
-66 -67 -69 0
-66 67 69 0
-67 -68 -32 0
-67 68 32 0
-69 63 5 0
-7 28 0
-7 8 0
-70 -71 72 0
-70 -72 71 0
-72 -73 -75 0
-72 73 75 0
-73 -74 -32 0
-73 74 32 0
-75 68 69 0
-76 -77 78 0
-76 -78 77 0
-78 -79 -81 0
-78 79 81 0
-79 -80 -32 0
-79 80 32 0
-8 26 0
-8 9 0
-81 74 75 0
-82 -83 84 0
-82 -84 83 0
-84 -85 -87 0
-84 85 87 0
-85 -86 -32 0
-85 86 32 0
-87 80 81 0
-88 -89 90 0
-88 -90 89 0
-9 10 0
-9 24 0
-90 -91 -93 0
-90 91 93 0
-91 -92 -32 0
-91 92 32 0
-93 86 87 0
-94 -95 96 0
-94 -96 95 0
-96 -97 -99 0
-96 97 99 0
-97 -98 -32 0
-97 98 32 0
-99 92 93 0
1 -2 -50 0
1 0
10 -11 -22 0
100 -101 -102 0
100 101 102 0
102 -103 105 0
102 -105 103 0
103 -104 32 0
103 -32 104 0
105 -98 0
105 -99 0
106 -107 -140 0
107 -108 -136 0
108 -109 -132 0
109 -110 -128 0
11 -12 -20 0
110 -111 -124 0
111 -112 -120 0
112 -113 -116 0
113 -60 -114 0
113 60 114 0
114 -115 5 0
114 -5 115 0
115 -15 32 0
115 -32 15 0
116 -65 -117 0
116 65 117 0
117 -118 119 0
117 -119 118 0
118 -17 5 0
118 -5 17 0
119 -15 0
119 -5 0
12 -13 -18 0
120 -71 -121 0
120 71 121 0
121 -122 123 0
121 -123 122 0
122 -19 5 0
122 -5 19 0
123 -17 -119 0
124 -77 -125 0
124 77 125 0
125 -126 127 0
125 -127 126 0
126 -21 5 0
126 -5 21 0
127 -19 -123 0
128 -83 -129 0
128 83 129 0
129 -130 131 0
129 -131 130 0
13 -14 -16 0
130 -23 5 0
130 -5 23 0
131 -21 -127 0
132 -89 -133 0
132 89 133 0
133 -134 135 0
133 -135 134 0
134 -25 5 0
134 -5 25 0
135 -23 -131 0
136 -95 -137 0
136 95 137 0
137 -138 139 0
137 -139 138 0
138 -27 5 0
138 -5 27 0
139 -25 -135 0
14 -15 -5 0
14 15 5 0
140 -101 -141 0
140 101 141 0
141 -142 143 0
141 -143 142 0
142 -29 5 0
142 -5 29 0
143 -27 -139 0
144 -145 -106 0
144 -35 -145 0
144 35 -106 0
145 -146 -175 0
146 -147 -171 0
147 -148 -167 0
148 -149 -163 0
149 -150 -159 0
150 -151 -155 0
151 -59 -152 0
152 -65 -153 0
152 65 153 0
153 -154 69 0
153 -69 154 0
154 -5 68 0
154 -68 5 0
155 -71 -156 0
155 71 156 0
156 -157 158 0
156 -158 157 0
157 -5 74 0
157 -74 5 0
158 -68 -69 0
159 -77 -160 0
159 77 160 0
16 -17 -5 0
16 17 5 0
160 -161 162 0
160 -162 161 0
161 -5 80 0
161 -80 5 0
162 -74 -158 0
163 -83 -164 0
163 83 164 0
164 -165 166 0
164 -166 165 0
165 -5 86 0
165 -86 5 0
166 -80 -162 0
167 -89 -168 0
167 89 168 0
168 -169 170 0
168 -170 169 0
169 -5 92 0
169 -92 5 0
170 -86 -166 0
171 -95 -172 0
171 95 172 0
172 -173 174 0
172 -174 173 0
173 -5 98 0
173 -98 5 0
174 -92 -170 0
175 -101 -176 0
175 101 176 0
176 -177 178 0
176 -178 177 0
177 -104 5 0
177 -5 104 0
178 -98 -174 0
18 -19 -5 0
18 19 5 0
2 -3 -6 0
2 -6 -34 0
2 3 -34 0
20 -21 -5 0
20 21 5 0
22 -23 -5 0
22 23 5 0
24 -25 -5 0
24 25 5 0
26 -27 -5 0
26 27 5 0
28 -29 -5 0
28 29 5 0
3 -4 -5 0
3 4 5 0
30 -31 -32 0
30 31 32 0
32 0
33 -31 -5 0
33 31 5 0
34 -33 -30 0
34 -35 -33 0
34 35 -30 0
35 -36 -49 0
36 -37 -48 0
37 -38 -47 0
38 -39 -46 0
39 -40 -45 0
40 -41 -44 0
41 -42 -43 0
42 -15 -32 0
42 15 32 0
43 -17 -32 0
43 17 32 0
44 -19 -32 0
44 19 32 0
45 -21 -32 0
45 21 32 0
46 -23 -32 0
46 23 32 0
47 -25 -32 0
47 25 32 0
48 -27 -32 0
48 27 32 0
49 -29 -32 0
49 29 32 0
50 -3 -51 0
50 -51 -144 0
50 3 -144 0
51 -35 -52 0
51 -52 -106 0
51 35 -106 0
52 -53 -100 0
53 -54 -94 0
54 -55 -88 0
55 -56 -82 0
56 -57 -76 0
57 -58 -70 0
58 -59 -64 0
59 -60 -61 0
59 60 61 0
6 -30 -33 0
6 -7 -30 0
6 7 -33 0
61 -5 62 0
61 -62 5 0
62 -32 63 0
62 -63 32 0
64 -65 -66 0
64 65 66 0
66 -67 69 0
66 -69 67 0
67 -32 68 0
67 -68 32 0
69 -5 0
69 -63 0
7 -8 -28 0
70 -71 -72 0
70 71 72 0
72 -73 75 0
72 -75 73 0
73 -32 74 0
73 -74 32 0
75 -68 0
75 -69 0
76 -77 -78 0
76 77 78 0
78 -79 81 0
78 -81 79 0
79 -32 80 0
79 -80 32 0
8 -9 -26 0
81 -74 0
81 -75 0
82 -83 -84 0
82 83 84 0
84 -85 87 0
84 -87 85 0
85 -32 86 0
85 -86 32 0
87 -80 0
87 -81 0
88 -89 -90 0
88 89 90 0
9 -10 -24 0
90 -91 93 0
90 -93 91 0
91 -32 92 0
91 -92 32 0
93 -86 0
93 -87 0
94 -95 -96 0
94 95 96 0
96 -97 99 0
96 -99 97 0
97 -32 98 0
97 -98 32 0
99 -92 0
99 -93 0
